(set-logic NRA)
(declare-fun y () Real)
(declare-fun x () Real)
(assert (exists ((z Real)) (and (= (* (+ (- 1) y) y (+ (- 16) (* y (+ (- 40) (* y (+ (- 25) y)))))) 0) (= (* y (+ (+ (- 24) (* y (+ (- 10) (* y (+ 27 (* y (- 1))))))) (* z 8))) 0) (=  (+ (* y (+ (- 84) (* y (+ (- 59) (* y (+ 82 (* y (- 3)))))))) (* x 64)) 0) (=  (+ (* y (- 1)) (* z z)) 0))))
(apply qe)
